400 1583 
1 5 1
1 6 1
1 7 1
1 8 1
1 12 1
1 15 1
1 17 1
1 19 1
1 22 1
1 28 1
1 29 1
1 34 1
1 36 1
1 40 1
1 47 1
1 48 1
1 51 1
1 52 1
1 53 1
1 54 1
1 63 1
1 64 1
1 67 1
1 68 1
1 73 1
1 74 1
1 76 1
1 86 1
1 97 1
1 99 1
1 107 1
1 115 1
1 120 1
1 126 1
1 135 1
1 137 1
1 144 1
1 155 1
1 157 1
1 167 1
1 169 1
1 170 1
1 174 1
1 181 1
1 184 1
1 195 1
1 223 1
1 225 1
1 236 1
1 246 1
1 247 1
1 249 1
1 273 1
1 278 1
1 279 1
1 293 1
1 301 1
1 302 1
1 320 1
1 333 1
1 374 1
1 387 1
1 392 1
2 5 1
2 6 1
2 8 1
2 9 1
2 10 1
2 12 1
2 13 1
2 14 1
2 16 1
2 17 1
2 18 1
2 19 1
2 24 1
2 26 1
2 29 1
2 30 1
2 31 1
2 32 1
2 36 1
2 40 1
2 41 1
2 46 1
2 48 1
2 63 1
2 69 1
2 76 1
2 79 1
2 88 1
2 90 1
2 92 1
2 116 1
2 118 1
2 173 1
2 186 1
2 195 1
2 196 1
2 197 1
2 198 1
2 201 1
2 202 1
2 203 1
2 204 1
2 226 1
2 244 1
2 253 1
2 255 1
2 298 1
2 308 1
2 322 1
2 343 1
2 368 1
2 373 1
2 374 1
2 385 1
2 386 1
3 5 1
3 8 1
3 10 1
3 15 1
3 60 1
3 216 1
3 341 1
3 386 1
4 5 1
4 6 1
4 7 1
4 9 1
4 11 1
4 16 1
4 21 1
4 25 1
4 26 1
4 29 1
4 31 1
4 40 1
4 59 1
4 85 1
4 94 1
4 127 1
4 138 1
4 174 1
4 191 1
4 204 1
4 205 1
4 210 1
4 221 1
4 231 1
4 257 1
4 268 1
4 317 1
4 343 1
4 363 1
4 395 1
5 6 1
5 7 1
5 9 1
5 10 1
5 12 1
5 15 1
5 17 1
5 21 1
5 23 1
5 25 1
5 26 1
5 27 1
5 28 1
5 34 1
5 36 1
5 43 1
5 52 1
5 53 1
5 54 1
5 61 1
5 62 1
5 73 1
5 77 1
5 78 1
5 80 1
5 91 1
5 104 1
5 105 1
5 109 1
5 111 1
5 115 1
5 120 1
5 121 1
5 125 1
5 131 1
5 134 1
5 135 1
5 140 1
5 143 1
5 147 1
5 157 1
5 163 1
5 175 1
5 181 1
5 183 1
5 184 1
5 185 1
5 197 1
5 216 1
5 218 1
5 223 1
5 236 1
5 240 1
5 248 1
5 249 1
5 260 1
5 267 1
5 269 1
5 281 1
5 304 1
5 322 1
5 330 1
5 333 1
5 342 1
5 348 1
5 353 1
5 368 1
5 395 1
6 7 1
6 8 1
6 9 1
6 10 1
6 11 1
6 14 1
6 20 1
6 24 1
6 27 1
6 28 1
6 32 1
6 37 1
6 40 1
6 41 1
6 53 1
6 60 1
6 68 1
6 71 1
6 87 1
6 91 1
6 106 1
6 108 1
6 148 1
6 181 1
6 182 1
6 209 1
6 267 1
6 270 1
6 278 1
6 290 1
6 292 1
6 300 1
6 321 1
6 325 1
6 340 1
6 354 1
6 361 1
6 363 1
7 18 1
7 23 1
7 79 1
7 191 1
7 250 1
8 13 1
8 14 1
8 15 1
8 19 1
8 21 1
8 22 1
8 30 1
8 35 1
8 36 1
8 38 1
8 43 1
8 44 1
8 58 1
8 62 1
8 89 1
8 91 1
8 107 1
8 113 1
8 137 1
8 142 1
8 151 1
8 157 1
8 172 1
8 189 1
8 200 1
8 249 1
8 307 1
8 318 1
8 325 1
8 384 1
9 11 1
9 23 1
9 25 1
9 32 1
9 33 1
9 41 1
9 44 1
9 46 1
9 50 1
9 51 1
9 55 1
9 64 1
9 73 1
9 93 1
9 102 1
9 103 1
9 138 1
9 161 1
9 169 1
9 170 1
9 175 1
9 206 1
9 231 1
9 269 1
9 311 1
9 314 1
9 336 1
9 383 1
10 11 1
10 12 1
10 17 1
10 20 1
10 23 1
10 24 1
10 38 1
10 42 1
10 45 1
10 47 1
10 54 1
10 55 1
10 61 1
10 65 1
10 66 1
10 70 1
10 78 1
10 82 1
10 87 1
10 100 1
10 109 1
10 111 1
10 112 1
10 113 1
10 117 1
10 147 1
10 153 1
10 179 1
10 183 1
10 185 1
10 188 1
10 206 1
10 220 1
10 225 1
10 230 1
10 239 1
10 243 1
10 319 1
10 323 1
10 344 1
10 378 1
10 380 1
10 388 1
11 13 1
11 16 1
11 18 1
11 24 1
11 33 1
11 58 1
11 65 1
11 68 1
11 73 1
11 86 1
11 90 1
11 92 1
11 104 1
11 106 1
11 127 1
11 175 1
11 250 1
11 260 1
11 271 1
11 280 1
11 281 1
11 294 1
11 324 1
11 351 1
11 394 1
11 398 1
11 400 1
12 13 1
12 14 1
12 22 1
12 29 1
12 33 1
12 34 1
12 45 1
12 54 1
12 58 1
12 62 1
12 72 1
12 81 1
12 82 1
12 83 1
12 87 1
12 95 1
12 110 1
12 121 1
12 133 1
12 135 1
12 136 1
12 141 1
12 144 1
12 161 1
12 170 1
12 180 1
12 191 1
12 211 1
12 217 1
12 224 1
12 230 1
12 275 1
12 287 1
12 312 1
12 316 1
12 317 1
12 324 1
12 330 1
12 347 1
12 355 1
12 365 1
12 369 1
12 371 1
12 387 1
12 392 1
12 398 1
13 35 1
13 49 1
13 50 1
13 64 1
13 100 1
13 106 1
13 108 1
13 147 1
13 182 1
13 229 1
13 240 1
13 246 1
13 372 1
13 389 1
14 28 1
14 32 1
14 49 1
14 50 1
14 53 1
14 56 1
14 57 1
14 65 1
14 81 1
14 84 1
14 95 1
14 96 1
14 113 1
14 116 1
14 138 1
14 164 1
14 190 1
14 219 1
14 230 1
14 233 1
14 244 1
14 262 1
14 274 1
14 276 1
14 283 1
14 310 1
14 328 1
14 355 1
14 381 1
15 16 1
15 19 1
15 20 1
15 34 1
15 39 1
15 42 1
15 46 1
15 48 1
15 52 1
15 60 1
15 61 1
15 64 1
15 66 1
15 70 1
15 85 1
15 93 1
15 94 1
15 122 1
15 128 1
15 143 1
15 160 1
15 176 1
15 177 1
15 241 1
15 254 1
15 271 1
15 285 1
15 305 1
15 306 1
15 341 1
15 371 1
15 399 1
16 18 1
16 25 1
16 37 1
16 39 1
16 50 1
16 63 1
16 105 1
16 119 1
16 173 1
16 175 1
16 202 1
16 209 1
16 244 1
16 331 1
17 20 1
17 22 1
17 26 1
17 27 1
17 47 1
17 49 1
17 57 1
17 77 1
17 103 1
17 114 1
17 118 1
17 126 1
17 132 1
17 136 1
17 150 1
17 253 1
17 261 1
17 313 1
17 318 1
17 365 1
17 391 1
18 31 1
18 42 1
18 78 1
18 99 1
18 141 1
18 177 1
18 201 1
18 208 1
18 270 1
18 335 1
18 366 1
19 21 1
19 57 1
19 79 1
19 81 1
19 133 1
19 134 1
19 153 1
19 167 1
19 171 1
19 179 1
19 247 1
19 252 1
19 306 1
19 327 1
19 373 1
20 46 1
20 60 1
20 99 1
20 305 1
20 321 1
20 349 1
21 35 1
21 59 1
21 84 1
21 131 1
21 158 1
21 174 1
21 192 1
21 218 1
21 266 1
21 304 1
21 315 1
21 372 1
21 387 1
21 388 1
22 31 1
22 44 1
22 74 1
22 97 1
22 98 1
22 112 1
22 149 1
22 214 1
22 218 1
22 219 1
22 224 1
22 238 1
22 259 1
22 273 1
22 292 1
22 301 1
22 331 1
22 379 1
23 27 1
23 35 1
23 44 1
23 51 1
23 76 1
23 88 1
23 95 1
23 116 1
23 159 1
23 241 1
23 282 1
23 289 1
23 297 1
23 315 1
23 389 1
24 38 1
24 45 1
24 49 1
24 72 1
24 82 1
24 147 1
24 203 1
24 204 1
24 209 1
24 383 1
25 78 1
25 151 1
25 248 1
25 263 1
25 272 1
26 30 1
26 43 1
26 59 1
26 114 1
26 126 1
26 128 1
26 194 1
26 227 1
26 231 1
26 245 1
26 264 1
27 30 1
27 120 1
27 130 1
27 142 1
27 162 1
27 164 1
27 265 1
27 293 1
27 302 1
27 303 1
27 351 1
27 372 1
28 33 1
28 47 1
28 69 1
28 75 1
28 77 1
28 80 1
28 118 1
28 166 1
28 187 1
28 192 1
28 207 1
28 339 1
28 375 1
29 62 1
29 96 1
29 110 1
29 121 1
29 123 1
29 124 1
29 142 1
29 183 1
29 196 1
29 220 1
29 224 1
29 226 1
29 239 1
29 259 1
29 318 1
29 344 1
29 391 1
30 66 1
30 93 1
30 95 1
30 122 1
30 124 1
30 171 1
30 177 1
30 198 1
30 219 1
30 255 1
31 42 1
31 152 1
32 156 1
33 58 1
33 132 1
33 139 1
33 258 1
33 277 1
33 297 1
34 37 1
34 39 1
34 43 1
34 56 1
34 65 1
34 90 1
34 92 1
34 100 1
34 115 1
34 121 1
34 168 1
34 208 1
34 210 1
34 228 1
34 238 1
34 276 1
34 293 1
34 377 1
35 37 1
35 45 1
35 100 1
35 101 1
35 140 1
35 168 1
35 184 1
35 214 1
35 227 1
35 233 1
35 375 1
35 387 1
35 399 1
36 38 1
36 51 1
36 52 1
36 116 1
36 195 1
36 275 1
36 367 1
37 59 1
37 89 1
37 223 1
38 39 1
38 69 1
38 165 1
38 178 1
39 70 1
39 71 1
39 97 1
39 101 1
39 102 1
39 149 1
39 269 1
39 274 1
39 294 1
39 303 1
39 397 1
40 41 1
40 107 1
40 117 1
40 164 1
40 248 1
40 286 1
41 61 1
41 87 1
41 89 1
41 94 1
41 127 1
41 139 1
41 161 1
41 164 1
41 172 1
41 196 1
41 251 1
41 275 1
41 276 1
41 286 1
41 342 1
41 350 1
41 357 1
41 370 1
41 382 1
42 48 1
42 56 1
42 82 1
42 84 1
42 92 1
42 160 1
42 173 1
42 176 1
42 188 1
42 216 1
42 243 1
42 251 1
42 262 1
42 273 1
42 296 1
42 394 1
43 150 1
43 339 1
44 132 1
44 176 1
44 186 1
44 187 1
44 208 1
44 245 1
44 382 1
45 67 1
45 72 1
45 203 1
45 206 1
45 251 1
45 255 1
45 270 1
45 284 1
45 348 1
46 85 1
46 101 1
46 115 1
46 162 1
46 171 1
46 198 1
46 295 1
46 304 1
46 314 1
46 353 1
47 69 1
47 70 1
47 108 1
47 110 1
47 114 1
47 152 1
47 191 1
47 193 1
47 210 1
47 232 1
47 235 1
47 238 1
47 285 1
47 286 1
47 288 1
47 369 1
48 71 1
48 74 1
48 75 1
48 161 1
48 188 1
48 212 1
48 256 1
49 55 1
49 71 1
49 86 1
49 104 1
49 136 1
49 276 1
49 325 1
49 336 1
50 55 1
50 106 1
50 117 1
50 169 1
50 199 1
50 221 1
50 224 1
50 240 1
50 279 1
50 304 1
50 316 1
50 339 1
50 377 1
51 178 1
51 207 1
51 237 1
51 352 1
51 384 1
52 182 1
52 228 1
52 258 1
53 56 1
53 79 1
53 90 1
53 112 1
53 123 1
53 140 1
53 153 1
53 158 1
53 165 1
53 199 1
53 211 1
53 216 1
53 232 1
53 235 1
53 251 1
53 282 1
53 290 1
53 294 1
53 351 1
54 200 1
54 258 1
54 338 1
54 342 1
54 356 1
55 75 1
55 84 1
55 123 1
55 232 1
55 305 1
55 321 1
56 57 1
56 88 1
56 142 1
56 291 1
56 293 1
56 328 1
56 367 1
57 81 1
57 96 1
57 154 1
57 165 1
57 172 1
57 234 1
57 328 1
57 360 1
58 66 1
58 76 1
58 89 1
58 125 1
58 129 1
58 143 1
58 194 1
58 234 1
58 263 1
58 283 1
58 317 1
58 380 1
59 68 1
59 77 1
59 96 1
59 105 1
59 111 1
59 133 1
59 155 1
59 195 1
59 253 1
59 280 1
59 309 1
59 322 1
59 344 1
59 366 1
60 131 1
60 325 1
60 391 1
61 63 1
61 74 1
61 199 1
61 264 1
61 272 1
61 369 1
61 378 1
62 93 1
62 98 1
62 109 1
62 172 1
62 193 1
63 67 1
64 122 1
64 158 1
64 163 1
64 363 1
65 75 1
65 257 1
65 259 1
65 291 1
65 308 1
65 309 1
65 319 1
66 67 1
66 80 1
66 83 1
66 102 1
66 109 1
66 113 1
66 120 1
66 127 1
66 139 1
66 160 1
66 205 1
66 242 1
66 286 1
66 315 1
66 356 1
67 264 1
67 281 1
67 320 1
67 340 1
67 361 1
67 385 1
68 118 1
68 215 1
69 72 1
69 94 1
69 124 1
69 137 1
69 148 1
69 153 1
69 192 1
69 214 1
69 243 1
70 80 1
70 85 1
70 125 1
70 265 1
70 319 1
71 125 1
71 326 1
71 398 1
72 102 1
72 119 1
72 148 1
72 213 1
73 101 1
73 108 1
73 111 1
73 229 1
73 237 1
73 241 1
73 244 1
73 260 1
73 292 1
73 308 1
73 324 1
74 119 1
74 130 1
74 218 1
74 274 1
74 299 1
75 140 1
75 267 1
75 268 1
76 83 1
76 228 1
76 240 1
76 270 1
77 103 1
77 112 1
77 307 1
77 332 1
77 338 1
78 226 1
78 354 1
78 360 1
78 364 1
78 383 1
79 86 1
79 180 1
79 220 1
79 221 1
79 313 1
80 146 1
80 162 1
80 180 1
80 384 1
81 210 1
81 254 1
82 83 1
82 128 1
82 134 1
82 141 1
82 248 1
83 149 1
83 155 1
83 188 1
84 186 1
84 212 1
84 236 1
84 320 1
85 104 1
85 205 1
86 91 1
86 129 1
86 133 1
86 150 1
86 360 1
86 398 1
87 88 1
87 129 1
87 150 1
87 297 1
88 158 1
88 163 1
88 202 1
88 237 1
88 263 1
88 379 1
88 381 1
89 99 1
89 144 1
89 223 1
89 278 1
90 97 1
90 235 1
91 98 1
91 103 1
91 119 1
91 123 1
91 156 1
91 162 1
91 166 1
91 167 1
91 171 1
91 196 1
91 289 1
91 309 1
91 348 1
91 366 1
91 386 1
91 390 1
91 397 1
92 107 1
92 375 1
92 400 1
93 98 1
93 117 1
93 254 1
94 105 1
94 139 1
94 148 1
94 337 1
95 110 1
95 132 1
95 134 1
95 135 1
95 182 1
95 183 1
95 266 1
95 311 1
95 370 1
97 198 1
97 215 1
97 289 1
97 374 1
98 145 1
98 152 1
98 336 1
99 213 1
100 155 1
100 252 1
101 131 1
101 152 1
101 225 1
101 234 1
101 254 1
101 259 1
101 326 1
102 130 1
102 193 1
102 339 1
103 124 1
103 209 1
103 375 1
104 340 1
104 349 1
105 146 1
105 358 1
106 201 1
106 264 1
106 303 1
106 383 1
108 200 1
108 361 1
109 122 1
109 146 1
109 165 1
109 242 1
109 340 1
109 393 1
110 114 1
110 396 1
111 389 1
112 173 1
112 257 1
112 274 1
114 128 1
114 166 1
114 298 1
114 345 1
114 353 1
115 145 1
115 168 1
115 178 1
115 189 1
115 190 1
116 130 1
116 141 1
116 146 1
116 256 1
116 283 1
116 353 1
116 361 1
117 126 1
117 272 1
117 297 1
117 316 1
118 238 1
119 185 1
119 187 1
119 256 1
120 174 1
120 194 1
120 350 1
120 354 1
121 137 1
121 156 1
121 181 1
121 212 1
121 258 1
121 288 1
121 327 1
121 338 1
121 362 1
121 382 1
121 388 1
122 143 1
122 151 1
123 167 1
124 154 1
124 156 1
124 169 1
124 261 1
125 129 1
125 144 1
125 145 1
125 151 1
125 157 1
125 197 1
125 227 1
125 239 1
125 265 1
125 272 1
125 288 1
125 302 1
125 359 1
125 379 1
125 397 1
126 170 1
126 192 1
126 212 1
126 308 1
127 231 1
127 277 1
128 294 1
132 222 1
133 145 1
133 154 1
133 180 1
134 136 1
134 166 1
134 206 1
134 222 1
134 359 1
134 389 1
135 211 1
136 138 1
136 184 1
136 229 1
136 390 1
138 177 1
138 257 1
138 326 1
138 352 1
138 359 1
139 149 1
139 160 1
139 179 1
139 227 1
139 243 1
140 268 1
141 194 1
141 287 1
141 323 1
141 380 1
142 154 1
142 190 1
142 314 1
142 335 1
143 377 1
144 199 1
144 260 1
144 306 1
144 332 1
144 347 1
145 202 1
145 314 1
145 386 1
146 159 1
146 189 1
146 253 1
146 320 1
147 242 1
147 329 1
147 376 1
148 159 1
148 265 1
148 283 1
148 349 1
150 163 1
150 176 1
150 285 1
151 168 1
151 179 1
151 279 1
151 280 1
151 357 1
151 396 1
152 246 1
153 159 1
153 279 1
153 331 1
153 370 1
153 385 1
154 178 1
154 200 1
154 204 1
155 185 1
155 225 1
155 252 1
155 291 1
155 319 1
155 360 1
157 299 1
158 307 1
159 250 1
160 189 1
160 217 1
160 221 1
160 236 1
161 186 1
161 197 1
161 211 1
161 217 1
161 249 1
161 256 1
161 311 1
162 336 1
163 193 1
163 235 1
163 271 1
164 245 1
164 287 1
164 291 1
165 284 1
165 326 1
165 356 1
166 207 1
166 282 1
166 364 1
167 215 1
167 255 1
167 288 1
168 213 1
168 295 1
169 367 1
170 281 1
171 266 1
171 338 1
172 207 1
172 307 1
173 234 1
173 376 1
174 201 1
174 332 1
175 217 1
175 273 1
175 300 1
175 334 1
176 203 1
176 278 1
176 328 1
176 345 1
176 395 1
177 205 1
177 237 1
177 246 1
177 305 1
177 327 1
177 350 1
177 365 1
178 190 1
178 392 1
179 245 1
179 290 1
180 313 1
181 366 1
182 337 1
183 266 1
184 213 1
184 229 1
186 187 1
186 215 1
186 219 1
186 358 1
186 376 1
187 275 1
187 355 1
188 241 1
188 341 1
188 346 1
188 365 1
188 378 1
190 230 1
190 289 1
191 262 1
191 303 1
193 232 1
194 347 1
194 379 1
195 222 1
195 364 1
197 252 1
198 228 1
198 310 1
198 344 1
200 220 1
200 233 1
200 298 1
201 226 1
201 302 1
203 239 1
203 373 1
204 208 1
204 390 1
204 391 1
206 292 1
206 337 1
206 368 1
207 214 1
208 247 1
209 368 1
210 250 1
210 384 1
211 262 1
211 315 1
211 357 1
211 376 1
212 242 1
212 295 1
213 312 1
213 381 1
215 222 1
215 277 1
216 316 1
217 323 1
217 337 1
217 362 1
217 393 1
217 396 1
218 299 1
219 247 1
220 287 1
220 372 1
221 263 1
222 324 1
225 277 1
225 299 1
226 269 1
227 233 1
229 282 1
229 350 1
231 261 1
232 268 1
232 311 1
232 363 1
232 381 1
233 301 1
233 330 1
234 271 1
234 329 1
234 349 1
235 322 1
235 369 1
238 301 1
240 261 1
240 371 1
241 300 1
241 345 1
242 364 1
243 394 1
243 397 1
244 373 1
245 284 1
247 284 1
247 333 1
248 285 1
248 371 1
250 335 1
250 378 1
251 331 1
251 354 1
252 295 1
254 352 1
254 359 1
255 267 1
255 318 1
256 306 1
258 280 1
258 290 1
259 312 1
259 313 1
260 390 1
261 296 1
261 298 1
261 309 1
268 399 1
268 400 1
269 296 1
270 310 1
270 342 1
270 346 1
271 348 1
275 382 1
276 329 1
276 392 1
277 347 1
278 374 1
282 335 1
283 332 1
283 334 1
286 310 1
287 395 1
288 312 1
289 329 1
289 343 1
291 367 1
292 321 1
292 341 1
292 346 1
294 296 1
295 300 1
299 334 1
306 327 1
307 323 1
308 352 1
310 343 1
310 385 1
311 351 1
314 380 1
318 330 1
321 358 1
321 393 1
325 358 1
326 346 1
326 355 1
329 333 1
330 345 1
331 356 1
331 399 1
332 334 1
335 357 1
337 362 1
339 394 1
347 362 1
357 370 1
357 377 1
362 396 1
378 388 1
382 393 1
386 400 1
